words_hard_train/456.qaiger
aag 126 24 0 1 102
2
4
8
10
22
24
36
38
50
52
64
66
78
80
94
96
100
104
108
112
116
220
222
230
252
6 2 4
12 9 11
14 8 10
16 13 15
18 6 16
20 19 15
26 23 25
28 22 24
30 27 29
32 21 30
34 33 29
40 37 39
42 36 38
44 41 43
46 35 44
48 47 43
54 51 53
56 50 52
58 55 57
60 49 58
62 61 57
68 65 67
70 64 66
72 69 71
74 63 72
76 75 71
82 79 81
84 78 80
86 83 85
88 76 87
90 77 86
92 89 91
98 95 97
102 98 101
106 102 105
110 106 109
114 110 113
118 115 116
120 114 117
122 119 121
124 93 122
126 92 123
128 125 127
130 62 73
132 131 75
134 111 112
136 135 115
138 133 136
140 48 59
142 141 61
144 107 108
146 145 111
148 143 146
150 139 149
152 20 31
154 153 33
156 99 100
158 157 103
160 154 159
162 155 158
164 161 163
166 34 45
168 167 47
170 103 104
172 171 107
174 169 172
176 164 175
178 150 176
180 132 137
182 142 147
184 181 183
186 3 5
188 187 7
190 189 95
192 7 17
194 193 19
196 195 97
198 194 96
200 197 199
202 190 201
204 188 94
206 204 200
208 203 207
210 168 173
212 209 211
214 184 212
216 178 214
218 128 216
224 221 222
226 220 223
228 225 227
232 228 231
234 229 230
236 233 235
238 237 120
240 236 121
242 239 241
244 91 85
246 243 245
248 242 244
250 247 249
252 219 250
i0 1 x1[0]
i1 1 x2[0]
i2 1 x1[1]
i3 1 x2[1]
i4 1 x1[2]
i5 1 x2[2]
i6 1 x1[3]
i7 1 x2[3]
i8 1 x1[4]
i9 1 x2[4]
i10 1 x1[5]
i11 1 x2[5]
i12 1 x1[6]
i13 1 x2[6]
i14 2 y2[0]
i15 2 y2[1]
i16 2 y2[2]
i17 2 y2[3]
i18 2 y2[4]
i19 2 y2[5]
i20 2 y2[6]
i21 1 x1[7]
i22 1 x2[7]
i23 2 y2[7]
o0 bv[0]
c
simplified
  >=
    xor
      unary minus
        2 y2
      add
        1 x1
        1 x2
    1
