words_hard_train/456.qaiger.qdimacs
p cnf 126 307
a 32 1 2 33 4 5 39 40 11 12 110 111 18 19 25 26 0
e 3 6 7 8 9 10 13 14 15 16 17 20 21 22 23 24 27 28 29 30 31 34 35 36 37 38 41 42 43 44 45 46 47 48 49 50 51 52 53 54 55 56 57 58 59 60 61 62 63 64 65 66 67 68 69 70 71 72 73 74 75 76 77 78 79 80 81 82 83 84 85 86 87 88 89 90 91 92 93 94 95 96 97 98 99 100 101 102 103 104 105 106 107 108 109 112 113 114 115 116 117 118 119 120 121 122 123 124 125 126 0
-1 -2 3 0
1 -3 0
2 -3 0
4 5 6 0
-4 -6 0
-5 -6 0
-4 -5 7 0
4 -7 0
5 -7 0
6 7 8 0
-6 -8 0
-7 -8 0
-3 -8 9 0
3 -9 0
8 -9 0
9 7 10 0
-9 -10 0
-7 -10 0
11 12 13 0
-11 -13 0
-12 -13 0
-11 -12 14 0
11 -14 0
12 -14 0
13 14 15 0
-13 -15 0
-14 -15 0
10 -15 16 0
-10 -16 0
15 -16 0
16 14 17 0
-16 -17 0
-14 -17 0
18 19 20 0
-18 -20 0
-19 -20 0
-18 -19 21 0
18 -21 0
19 -21 0
20 21 22 0
-20 -22 0
-21 -22 0
17 -22 23 0
-17 -23 0
22 -23 0
23 21 24 0
-23 -24 0
-21 -24 0
25 26 27 0
-25 -27 0
-26 -27 0
-25 -26 28 0
25 -28 0
26 -28 0
27 28 29 0
-27 -29 0
-28 -29 0
24 -29 30 0
-24 -30 0
29 -30 0
30 28 31 0
-30 -31 0
-28 -31 0
32 33 34 0
-32 -34 0
-33 -34 0
-32 -33 35 0
32 -35 0
33 -35 0
34 35 36 0
-34 -36 0
-35 -36 0
31 -36 37 0
-31 -37 0
36 -37 0
37 35 38 0
-37 -38 0
-35 -38 0
39 40 41 0
-39 -41 0
-40 -41 0
-39 -40 42 0
39 -42 0
40 -42 0
41 42 43 0
-41 -43 0
-42 -43 0
-38 43 44 0
38 -44 0
-43 -44 0
38 -43 45 0
-38 -45 0
43 -45 0
44 45 46 0
-44 -46 0
-45 -46 0
47 48 49 0
-47 -49 0
-48 -49 0
-49 50 51 0
49 -51 0
-50 -51 0
-51 52 53 0
51 -53 0
-52 -53 0
-53 54 55 0
53 -55 0
-54 -55 0
-55 56 57 0
55 -57 0
-56 -57 0
57 -58 59 0
-57 -59 0
58 -59 0
-57 58 60 0
57 -60 0
-58 -60 0
59 60 61 0
-59 -61 0
-60 -61 0
46 -61 62 0
-46 -62 0
61 -62 0
-46 61 63 0
46 -63 0
-61 -63 0
62 63 64 0
-62 -64 0
-63 -64 0
-31 36 65 0
31 -65 0
-36 -65 0
65 37 66 0
-65 -66 0
-37 -66 0
55 -56 67 0
-55 -67 0
56 -67 0
67 57 68 0
-67 -68 0
-57 -68 0
66 -68 69 0
-66 -69 0
68 -69 0
-24 29 70 0
24 -70 0
-29 -70 0
70 30 71 0
-70 -71 0
-30 -71 0
53 -54 72 0
-53 -72 0
54 -72 0
72 55 73 0
-72 -73 0
-55 -73 0
71 -73 74 0
-71 -74 0
73 -74 0
69 74 75 0
-69 -75 0
-74 -75 0
-10 15 76 0
10 -76 0
-15 -76 0
76 16 77 0
-76 -77 0
-16 -77 0
49 -50 78 0
-49 -78 0
50 -78 0
78 51 79 0
-78 -79 0
-51 -79 0
-77 79 80 0
77 -80 0
-79 -80 0
77 -79 81 0
-77 -81 0
79 -81 0
80 81 82 0
-80 -82 0
-81 -82 0
-17 22 83 0
17 -83 0
-22 -83 0
83 23 84 0
-83 -84 0
-23 -84 0
51 -52 85 0
-51 -85 0
52 -85 0
85 53 86 0
-85 -86 0
-53 -86 0
84 -86 87 0
-84 -87 0
86 -87 0
-82 87 88 0
82 -88 0
-87 -88 0
-75 -88 89 0
75 -89 0
88 -89 0
-66 68 90 0
66 -90 0
-68 -90 0
-71 73 91 0
71 -91 0
-73 -91 0
90 91 92 0
-90 -92 0
-91 -92 0
1 2 93 0
-1 -93 0
-2 -93 0
93 3 94 0
-93 -94 0
-3 -94 0
94 47 95 0
-94 -95 0
-47 -95 0
3 8 96 0
-3 -96 0
-8 -96 0
96 9 97 0
-96 -97 0
-9 -97 0
97 48 98 0
-97 -98 0
-48 -98 0
-97 -48 99 0
97 -99 0
48 -99 0
98 99 100 0
-98 -100 0
-99 -100 0
-95 100 101 0
95 -101 0
-100 -101 0
-94 -47 102 0
94 -102 0
47 -102 0
-102 -100 103 0
102 -103 0
100 -103 0
101 103 104 0
-101 -104 0
-103 -104 0
-84 86 105 0
84 -105 0
-86 -105 0
104 105 106 0
-104 -106 0
-105 -106 0
-92 -106 107 0
92 -107 0
106 -107 0
-89 -107 108 0
89 -108 0
107 -108 0
-64 -108 109 0
64 -109 0
108 -109 0
110 -111 112 0
-110 -112 0
111 -112 0
-110 111 113 0
110 -113 0
-111 -113 0
112 113 114 0
-112 -114 0
-113 -114 0
-114 115 116 0
114 -116 0
-115 -116 0
114 -115 117 0
-114 -117 0
115 -117 0
116 117 118 0
-116 -118 0
-117 -118 0
118 -60 119 0
-118 -119 0
60 -119 0
-118 60 120 0
118 -120 0
-60 -120 0
119 120 121 0
-119 -121 0
-120 -121 0
45 42 122 0
-45 -122 0
-42 -122 0
121 122 123 0
-121 -123 0
-122 -123 0
-121 -122 124 0
121 -124 0
122 -124 0
123 124 125 0
-123 -125 0
-124 -125 0
109 -125 126 0
-109 -126 0
125 -126 0
126 0
